15 40
25
3 11 9 29
3 13 4 27
2 9 0 1
2 7 0 10
3 9 12 13
3 7 12 33
2 11 4 16
2 13 13 0
4 11 0 17
4 13 9 0
5 3 2 13
2 11 6 16
2 2 7 27
3 11 12 22
3 2 9 27
4 5 8 22
4 6 8 16
2 12 2 1
2 1 2 16
5 3 7 13
5 13 4 0
4 12 0 28
4 1 0 0
2 5 7 35
2 6 7 29
